%SETS
JOBS     = 1..3;
MACHINES = 1..8;
SPEED    = 1;

time               = array3d(JOBS,MACHINES,1..SPEED,[96, 44, 81, 57, 61, 93, 16, 17, 11, 84, 80, 88, 98, 81, 51, 80, 20, 67, 22, 95, 56, 47, 33, 79]);
energy             = array3d(JOBS,MACHINES,1..SPEED,[38, 64, 44, 56, 54, 39, 85, 84, 89, 43, 44, 41, 37, 44, 60, 44, 81, 51, 80, 38, 57, 62, 71, 45]);
precedence         = array2d(JOBS,MACHINES,[4,1,5,2,6,0,3,7,5,3,0,1,4,7,6,2,5,4,7,2,3,0,1,6]);